1 0
2 6
3 1
4 10
5 7
6 6
7 2
8 8
9 7
10  3
11  5
12  1
13  4
14  10
15  4
16  10
17  3
18  6
19  4
20  3
21  10
22  8
23  6
24  7
25  7
26  4
27  1
28  5
29  3
30  6
31  8
32  5
33  9
34  6
35  9
36  9
37  4
38  1
39  9
40  10
41  2
42  4
43  1
44  10
45  1
46  10
47  2
48  10
49  1
50  4
51  5
52  5
53  6
54  6
55  9
56  4
57  4
58  9
59  3
60  7
61  6
62  8
63  5
64  9
65  3
66  9
67  1
68  1
69  5
70  7
71  6
72  6
73  9
74  3
75  8
76  5
77  9
78  10
79  9
80  5
81  9
82  5
83  10
84  1
85  2
86  9
87  3
88  8
89  2
90  6
91  1
92  3
93  1
94  8
95  8
96  6
97  9
98  5
99  5
100 9
101 1
102 9
103 6
104 3
105 4
106 9
107 7
108 1
109 9
110 6
111 10
112 2
113 3
114 9
115 6
116 4
117 9
118 10
119 3
120 7
121 6
122 6
123 4
124 5
125 9
126 2
127 2
128 4
129 5
130 6
131 1
132 5
133 4
134 3
135 4
136 9
137 4
138 3
139 5
140 10
141 2
142 5
143 8
144 8
145 10
146 7
147 3
148 6
149 9
150 5
151 2
152 10
153 4
154 9
155 2
156 6
157 1
158 6
159 1
160 1
161 7
162 10
163 7
164 3
165 6
166 4
167 4
168 3
169 5
170 4
171 2
172 5
173 1
174 10
175 7
176 3
177 7
178 10
179 10
180 2
181 3
182 10
183 6
184 3
185 1
186 4
187 3
188 10
189 10
190 4
191 8
192 5
193 2
194 8
195 2
196 5
197 8
198 7
199 10
200 1
201 5
202 4
203 7
204 8
205 7
206 8
207 3
208 2
209 9
210 7
211 5
212 3
213 3
214 10
215 8
216 5
217 5
218 3
219 7
220 9
221 5
222 2
223 7
224 3
225 6
226 1
227 6
228 3
229 1
230 8
231 5
232 1
233 9
234 2
235 9
236 3
237 10
238 3
239 8
240 6
241 4
242 9
243 9
244 3
245 10
246 10
247 1
248 4
249 1
250 5
251 2
252 5
253 10
254 6
255 4
256 3
257 6
258 10
259 7
260 2
261 8
262 1
263 5
264 2
265 5
266 9
267 7
268 2
269 4
270 1
271 7
272 10
273 8
274 6
275 10
276 4
277 6
278 6
279 1
280 7
281 7
282 2
283 8
284 2
285 5
286 10
287 1
288 3
289 9
290 3
291 5
292 3
293 9
294 3
295 3
296 2
297 8
298 5
299 10
300 8
301 9
302 7
303 4
304 3
305 8
306 8
307 8
308 8
309 3
310 2
311 10
312 2
313 10
314 3
315 3
316 3
317 3
318 9
319 3
320 1
321 10
322 2
323 9
324 9
325 7
326 8
327 3
328 7
329 6
330 1
331 8
332 3
333 7
334 7
335 2
336 3
337 10
338 7
339 10
340 10
341 2
342 4
343 4
344 7
345 5
346 8
347 7
348 9
349 4
350 10
351 5
352 5
353 7
354 7
355 7
356 4
357 3
358 1
359 9
360 6
361 5
362 6
363 8
364 2
365 10
366 5
367 7
368 7
369 1
370 1
371 7
372 1
373 5
374 8
375 6
376 10
377 9
378 8
379 9
380 5
381 1
382 8
383 9
384 2
385 6
386 8
387 9
388 10
389 8
390 9
391 6
392 7
393 1
394 1
395 2
396 6
397 9
398 8
399 2
400 4
401 7
402 2
403 7
404 4
405 3
406 9
407 1
408 8
409 8
410 4
411 8
412 3
413 5
414 7
415 10
416 1
417 3
418 6
419 5
420 9
421 4
422 6
423 7
424 7
425 1
426 7
427 6
428 8
429 5
430 10
431 1
432 1
433 5
434 9
435 10
436 3
437 8
438 1
439 1
440 10
441 1
442 4
443 3
444 5
445 7
446 4
447 3
448 8
449 6
450 10
451 2
452 5
453 3
454 8
455 6
456 5
457 2
458 3
459 1
460 1
461 1
462 7
463 8
464 7
465 2
466 3
467 4
468 10
469 1
470 1
471 3
472 3
473 2
474 1
475 3
476 5
477 9
478 3
479 10
480 3
481 1
482 2
483 10
484 1
485 6
486 10
487 8
488 8
489 10
490 10
491 6
492 8
493 7
494 4
495 7
496 7
497 4
498 5
499 8
500 7
501 4
502 4
503 8
504 5
505 8
506 4
507 7
508 5
509 3
510 9
511 7
512 2
513 4
514 1
515 8
516 9
517 5
518 7
519 6
520 3
521 1
522 9
523 9
524 2
525 6
526 7
527 2
528 2
529 7
530 4
531 2
532 9
533 9
534 5
535 3
536 4
537 7
538 4
539 4
540 8
541 10
542 9
543 7
544 4
545 2
546 8
547 6
548 2
549 1
550 5
551 5
552 10
553 3
554 9
555 10
556 5
557 9
558 10
559 8
560 8
561 9
562 1
563 5
564 6
565 7
566 9
567 10
568 7
569 4
570 10
571 3
572 7
573 1
574 7
575 5
576 6
577 1
578 3
579 1
580 3
581 6
582 9
583 8
584 5
585 2
586 1
587 7
588 1
589 7
590 9
591 8
592 3
593 5
594 7
595 6
596 3
597 9
598 1
599 3
600 3
601 6
602 3
603 4
604 5
605 9
606 9
607 4
608 6
609 8
610 7
611 4
612 4
613 1
614 4
615 10
616 6
617 5
618 6
619 10
620 2
621 2
622 10
623 7
624 5
625 2
626 1
627 3
628 2
629 8
630 8
631 7
632 9
633 10
634 3
635 5
636 5
637 5
638 10
639 8
640 3
641 10
642 9
643 3
644 9
645 8
646 5
647 5
648 2
649 7
650 3
651 8
652 1
653 6
654 7
655 8
656 2
657 8
658 4
659 7
660 6
661 4
662 3
663 7
664 4
665 2
666 2
667 5
668 9
669 10
670 5
671 2
672 3
673 3
674 10
675 8
676 10
677 9
678 9
679 7
680 9
681 6
682 2
683 1
684 10
685 10
686 6
687 6
688 2
689 8
690 6
691 5
692 8
693 10
694 3
695 5
696 4
697 9
698 8
699 4
700 10
701 6
702 9
703 10
704 4
705 4
706 1
707 7
708 1
709 5
710 10
711 10
712 6
713 8
714 5
715 6
716 3
717 6
718 3
719 5
720 3
721 9
722 8
723 7
724 1
725 6
726 3
727 6
728 8
729 8
730 3
731 10
732 1
733 4
734 9
735 5
736 5
737 9
738 1
739 10
740 3
741 8
742 3
743 7
744 1
745 9
746 2
747 3
748 3
749 5
750 2
751 8
752 1
753 7
754 9
755 2
756 6
757 5
758 9
759 3
760 3
761 4
762 6
763 3
764 4
765 7
766 9
767 3
768 3
769 5
770 1
771 5
772 10
773 8
774 4
775 4
776 2
777 7
778 2
779 1
780 2
781 9
782 9
783 10
784 6
785 10
786 1
787 9
788 8
789 8
790 4
791 2
792 8
793 5
794 8
795 1
796 4
797 5
798 4
799 6
800 7
801 9
802 2
803 1
804 5
805 9
806 8
807 4
808 5
809 8
810 6
811 9
812 3
813 10
814 9
815 5
816 5
817 3
818 3
819 8
820 9
821 7
822 6
823 7
824 10
825 7
826 10
827 4
828 2
829 1
830 10
831 9
832 3
833 6
834 3
835 9
836 10
837 1
838 1
839 1
840 10
841 8
842 5
843 7
844 8
845 8
846 8
847 7
848 5
849 4
850 5
851 7
852 1
853 2
854 9
855 10
856 7
857 6
858 1
859 1
860 1
861 5
862 3
863 5
864 10
865 4
866 5
867 6
868 8
869 6
870 7
871 9
872 3
873 3
874 9
875 2
876 1
877 6
878 10
879 10
880 5
881 8
882 9
883 5
884 9
885 7
886 8
887 6
888 6
889 10
890 2
891 10
892 4
893 10
894 7
895 10
896 5
897 9
898 8
899 2
900 3
901 5
902 3
903 2
904 3
905 2
906 7
907 6
908 5
909 5
910 2
911 8
912 3
913 3
914 4
915 1
916 3
917 1
918 8
919 10
920 6
921 5
922 3
923 2
924 4
925 6
926 8
927 7
928 6
929 7
930 3
931 6
932 6
933 10
934 3
935 5
936 8
937 9
938 1
939 5
940 2
941 7
942 8
943 5
944 5
945 4
946 1
947 5
948 8
949 8
950 6
951 5
952 5
953 7
954 5
955 4
956 4
957 6
958 10
959 10
960 2
961 6
962 10
963 7
964 1
965 3
966 2
967 1
968 5
969 2
970 1
971 10
972 5
973 3
974 4
975 5
976 1
977 9
978 10
979 5
980 6
981 8
982 6
983 6
984 10
985 3
986 8
987 7
988 6
989 1
990 1
991 3
992 9
993 2
994 8
995 4
996 10
997 5
998 7
999 5
1000  2
1001  7